17	4
23	25	25	20	
0	0	0	0	0	3	2	3	4	
8	10	9	4	7	3	8	17	17	
8	9	5	9	9	3	5	6	17	
5	8	10	8	1	3	8	9	17	
2	8	5	3	10	1	7	
150	10	2	8	6	2	13	14	
250	7	1	9	5	2	10	16	
200	1	7	6	1	3	12	17	17	
150	10	3	8	7	1	11	
125	2	5	10	5	3	12	15	17	
75	2	10	6	7	2	17	17	
150	6	2	2	7	1	17	
7	9	2	3	3	3	15	17	17	
3	5	6	3	4	3	15	17	17	
10	1	1	2	10	2	17	17	
10	10	5	6	4	2	17	17	
0	0	0	0	0	0	
